p tw 37 3331 2 
1 4 
1 6 
1 8 
1 10 
1 12 
1 14 
1 16 
1 18 
1 20 
1 22 
1 24 
1 26 
1 28 
1 30 
1 32 
1 34 
1 36 
2 3 
2 4 
2 5 
2 8 
2 9 
2 10 
2 11 
2 13 
2 14 
2 21 
2 23 
2 25 
2 26 
2 30 
2 32 
2 33 
2 36 
3 7 
3 8 
3 13 
3 16 
3 17 
3 18 
3 19 
3 20 
3 21 
3 23 
3 25 
3 28 
3 29 
3 30 
3 32 
3 35 
3 36 
4 5 
4 6 
4 7 
4 10 
4 11 
4 12 
4 13 
4 15 
4 16 
4 23 
4 25 
4 27 
4 28 
4 32 
4 34 
4 35 
5 9 
5 10 
5 15 
5 18 
5 19 
5 20 
5 21 
5 22 
5 23 
5 25 
5 27 
5 30 
5 31 
5 32 
5 34 
5 37 
6 7 
6 8 
6 9 
6 12 
6 13 
6 14 
6 15 
6 17 
6 18 
6 25 
6 27 
6 29 
6 30 
6 34 
6 36 
6 37 
7 11 
7 12 
7 17 
7 20 
7 21 
7 22 
7 23 
7 24 
7 25 
7 27 
7 29 
7 32 
7 33 
7 34 
7 36 
8 9 
8 10 
8 11 
8 14 
8 15 
8 16 
8 17 
8 19 
8 20 
8 27 
8 29 
8 31 
8 32 
8 36 
9 13 
9 14 
9 19 
9 22 
9 23 
9 24 
9 25 
9 26 
9 27 
9 29 
9 31 
9 34 
9 35 
9 36 
10 11 
10 12 
10 13 
10 16 
10 17 
10 18 
10 19 
10 21 
10 22 
10 29 
10 31 
10 33 
10 34 
11 15 
11 16 
11 21 
11 24 
11 25 
11 26 
11 27 
11 28 
11 29 
11 31 
11 33 
11 36 
11 37 
12 13 
12 14 
12 15 
12 18 
12 19 
12 20 
12 21 
12 23 
12 24 
12 31 
12 33 
12 35 
12 36 
13 17 
13 18 
13 23 
13 26 
13 27 
13 28 
13 29 
13 30 
13 31 
13 33 
13 35 
14 15 
14 16 
14 17 
14 20 
14 21 
14 22 
14 23 
14 25 
14 26 
14 33 
14 35 
14 37 
15 19 
15 20 
15 25 
15 28 
15 29 
15 30 
15 31 
15 32 
15 33 
15 35 
15 37 
16 17 
16 18 
16 19 
16 22 
16 23 
16 24 
16 25 
16 27 
16 28 
16 35 
16 37 
17 21 
17 22 
17 27 
17 30 
17 31 
17 32 
17 33 
17 34 
17 35 
17 37 
18 19 
18 20 
18 21 
18 24 
18 25 
18 26 
18 27 
18 29 
18 30 
18 37 
19 23 
19 24 
19 29 
19 32 
19 33 
19 34 
19 35 
19 36 
19 37 
20 21 
20 22 
20 23 
20 26 
20 27 
20 28 
20 29 
20 31 
20 32 
21 25 
21 26 
21 31 
21 34 
21 35 
21 36 
21 37 
22 23 
22 24 
22 25 
22 28 
22 29 
22 30 
22 31 
22 33 
22 34 
23 27 
23 28 
23 33 
23 36 
23 37 
24 25 
24 26 
24 27 
24 30 
24 31 
24 32 
24 33 
24 35 
24 36 
25 29 
25 30 
25 35 
26 27 
26 28 
26 29 
26 32 
26 33 
26 34 
26 35 
26 37 
27 31 
27 32 
27 37 
28 29 
28 30 
28 31 
28 34 
28 35 
28 36 
28 37 
29 33 
29 34 
30 31 
30 32 
30 33 
30 36 
30 37 
31 35 
31 36 
32 33 
32 34 
32 35 
33 37 
34 35 
34 36 
34 37 
36 37 
